
set states := 's1' 's2' 's3';
set actions := 1 2;

param T = 2;

param NA:	s1		s2		s3:=
	1		1		1		1
	2		1		0		0;	

param r:	s1		s2		s3:=
	1		10		10		-100
	2		5		0		0;
	
	
param p:	s1		s2		s3:=
	s1	1	0		1		0
	s1	2	1		0		0
	s2	1	0.1		0		0.9
	s2	2	0		0		0
	s3	1	0		0		1
	s3	2	0		0		0;	